num_servers = 16;
sid = [0, 1, 2, 3, 4, 5, 6, 7, 8, 9, 10, 11, 12, 13, 14, 15];
scpu = [5, 5, 5, 5, 5, 5, 5, 5, 5, 10, 5, 5, 5, 5, 5, 10];
sram = [9, 10, 16, 9, 6, 9, 8, 16, 6, 10, 9, 8, 7, 9, 6, 10];

num_vms = 90;
vjob = [0, 1, 2, 2, 2, 2, 2, 3, 4, 4, 5, 5, 5, 5, 5, 6, 6, 6, 6, 6, 7, 8, 9, 10, 11, 11, 11, 11, 11, 11, 11, 12, 12, 12, 12, 13, 13, 14, 15, 15, 16, 16, 16, 16, 16, 17, 17, 17, 17, 17, 17, 18, 19, 20, 20, 21, 21, 22, 23, 23, 23, 23, 23, 23, 23, 24, 24, 24, 24, 24, 24, 25, 26, 27, 27, 27, 27, 27, 28, 28, 28, 28, 28, 28, 29, 30, 30, 30, 31, 32];
vindex = [0, 0, 0, 1, 2, 3, 4, 0, 0, 1, 0, 1, 2, 3, 4, 0, 1, 2, 3, 4, 0, 0, 0, 0, 0, 1, 2, 3, 4, 5, 6, 0, 1, 2, 3, 0, 1, 0, 0, 1, 0, 1, 2, 3, 4, 0, 1, 2, 3, 4, 5, 0, 0, 0, 1, 0, 1, 0, 0, 1, 2, 3, 4, 5, 6, 0, 1, 2, 3, 4, 5, 0, 0, 0, 1, 2, 3, 4, 0, 1, 2, 3, 4, 5, 0, 0, 1, 2, 0, 0];
vcpu = [1, 1, 1, 1, 1, 1, 1, 1, 1, 1, 1, 1, 1, 1, 1, 1, 1, 1, 1, 1, 1, 1, 1, 1, 1, 1, 1, 1, 1, 1, 1, 1, 1, 1, 1, 1, 1, 1, 1, 1, 1, 1, 1, 1, 1, 1, 1, 1, 1, 1, 1, 1, 1, 1, 1, 1, 1, 1, 1, 1, 1, 1, 1, 1, 1, 1, 1, 1, 1, 1, 1, 1, 1, 1, 1, 1, 1, 1, 1, 1, 1, 1, 1, 1, 1, 1, 1, 1, 1, 1];
vram = [1, 1, 1, 1, 1, 1, 1, 1, 1, 1, 1, 1, 1, 1, 1, 1, 1, 1, 1, 1, 1, 1, 1, 1, 1, 1, 1, 1, 1, 1, 1, 1, 1, 1, 1, 1, 1, 1, 1, 1, 1, 1, 1, 1, 1, 1, 1, 1, 1, 1, 1, 1, 1, 1, 1, 1, 1, 1, 1, 1, 1, 1, 1, 1, 1, 1, 1, 1, 1, 1, 1, 1, 1, 1, 1, 1, 1, 1, 1, 1, 1, 1, 1, 1, 1, 1, 1, 1, 1, 1];
vac = [true, true, true, true, true, true, true, true, true, true, true, true, true, true, true, true, true, true, true, true, true, true, true, true, true, true, true, true, true, true, true, true, true, true, true, true, true, true, true, true, true, true, true, true, true, true, true, true, true, true, true, true, true, true, true, true, true, true, true, true, true, true, true, true, true, true, true, true, true, true, true, true, true, true, true, true, true, true, true, true, true, true, true, true, true, true, true, true, true, true];
